20J7M/DAT/20J7MUNL-1.dat
20 7
11.9518 11.9518
38.3419 38.3419
23.5316 23.5316
24.5492 24.5492
24.2814 24.2814
41.1267 41.1267
7.41 7.41
11.5659 11.5659
0.4026 0.4026
31.5839 31.5839
48.4554 48.4554
48.246 48.246
48.4971 48.4971
11.7264 11.7264
7.0205 7.0205
33.4819 33.4819
36.7202 36.7202
42.8878 42.8878
0.3523 0.3523
11.2223 11.2223
503.3549