20J7M/SOL/20J7MUNL-1.sol
solution status: optimal solution found
objective value:                     62.9732142857143
x#1#4                                               1 	(obj:0)
x#2#3                                               1 	(obj:0)
x#3#2                                               1 	(obj:0)
x#4#4                                               1 	(obj:0)
x#5#7                                               1 	(obj:0)
x#6#4                                               1 	(obj:0)
x#7#6                                               1 	(obj:0)
x#8#4                                               1 	(obj:0)
x#9#4                                               1 	(obj:0)
x#10#1                                              1 	(obj:0)
x#11#1                                              1 	(obj:0)
x#12#1                              0.470226565039723 	(obj:0)
x#12#2                              0.529773434960277 	(obj:0)
x#13#2                              0.438631061475984 	(obj:0)
x#13#6                              0.561368938524016 	(obj:0)
x#14#5                                              1 	(obj:0)
x#15#1                              0.182876495826707 	(obj:0)
x#15#5                              0.817123504173293 	(obj:0)
x#16#3                              0.533604104651965 	(obj:0)
x#16#6                             0.0335029070713353 	(obj:0)
x#16#7                                0.4328929882767 	(obj:0)
x#17#4                                              1 	(obj:0)
x#18#1                              0.825112236078528 	(obj:0)
x#18#4                              0.174887763921472 	(obj:0)
x#19#4                                              1 	(obj:0)
x#20#4                                              1 	(obj:0)
z                                    62.9732142857143 	(obj:1)
